NAME: I15298-n22-k4
COMMENT : (Fake et al, No of trucks: 4, Optimal value: )
TYPE : CVRP
DIMENSION : 22
EDGE_WEIGHT_TYPE : EUC_2D
CAPACITY : 34
NODE_COORD_SECTION
1 645 262
2 103 268
3 102 198
4 97 631
5 383 109
6 837 702
7 808 312
8 73 123
9 712 70
10 252 199
11 39 540
12 134 390
13 693 525
14 543 742
15 784 270
16 127 845
17 384 202
18 435 572
19 37 208
20 63 412
21 433 764
22 159 211
DEMAND_SECTION
1 0
2 8
3 2
4 7
5 5
6 6
7 11
8 5
9 8
10 9
11 6
12 3
13 7
14 2
15 1
16 2
17 5
18 7
19 10
20 9
21 4
22 3
DEPOT_SECTION
 1
 -1
 EOF 